NAME : amz1974.127604_127604.tour
COMMENT : Cost = 127604_127604
COMMENT : Found by LKH-AMZ [Keld Helsgaun] Sun May 11 15:04:26 2025
COMMENT : TW viol.: 0 #: 0
TYPE : TOUR
DIMENSION : 134
TOUR_SECTION
130
99
34
61
114
109
48
77
32
40
134
19
104
94
56
44
35
92
95
117
13
120
11
100
21
88
75
47
65
64
26
85
25
83
74
133
73
53
108
70
127
12
110
28
62
125
131
49
107
6
113
111
126
81
121
24
41
39
106
54
115
2
118
55
79
69
29
1
8
5
124
31
86
4
67
30
63
20
84
119
102
91
96
101
82
90
76
128
10
18
80
7
33
87
116
16
129
78
17
3
14
38
66
93
105
51
9
45
37
97
112
71
68
72
50
23
98
60
36
103
42
43
122
123
27
58
132
52
15
89
57
46
59
22
-1
EOF
